p edge 108 445
e 1 32
e 2 33
e 3 34
e 4 35
e 5 36
e 6 37
e 7 38
e 8 39
e 9 40
e 10 41
e 11 42
e 12 43
e 13 44
e 14 45
e 15 46
e 16 47
e 17 48
e 18 49
e 19 50
e 20 51
e 21 52
e 22 53
e 23 54
e 24 55
e 25 56
e 26 57
e 27 58
e 28 59
e 29 60
e 30 61
e 31 62
e 32 65
e 32 68
e 32 75
e 32 78
e 32 81
e 32 88
e 32 100
e 32 102
e 32 108
e 33 65
e 33 67
e 33 68
e 33 72
e 33 73
e 33 74
e 33 77
e 33 82
e 33 86
e 33 90
e 33 99
e 33 106
e 34 71
e 34 79
e 34 86
e 34 92
e 34 93
e 34 97
e 34 99
e 34 100
e 34 108
e 35 68
e 35 70
e 35 75
e 35 82
e 35 89
e 35 91
e 35 93
e 35 95
e 35 97
e 35 98
e 35 100
e 35 107
e 36 66
e 36 72
e 36 73
e 36 84
e 36 85
e 36 88
e 36 94
e 36 96
e 36 101
e 36 105
e 36 106
e 37 64
e 37 67
e 37 68
e 37 75
e 37 79
e 37 84
e 37 86
e 37 88
e 37 91
e 37 96
e 38 67
e 38 71
e 38 72
e 38 73
e 38 80
e 38 81
e 38 90
e 38 93
e 39 66
e 39 69
e 39 70
e 39 77
e 39 79
e 39 80
e 39 87
e 39 90
e 39 93
e 39 94
e 39 102
e 39 104
e 39 105
e 39 107
e 39 108
e 40 63
e 40 67
e 40 74
e 40 75
e 40 78
e 40 87
e 40 96
e 40 101
e 40 103
e 40 107
e 41 64
e 41 77
e 41 78
e 41 79
e 41 82
e 41 83
e 41 86
e 41 87
e 41 91
e 41 92
e 41 93
e 41 98
e 41 107
e 42 63
e 42 65
e 42 72
e 42 73
e 42 77
e 42 78
e 42 83
e 42 84
e 42 85
e 42 89
e 42 92
e 42 102
e 42 105
e 43 64
e 43 66
e 43 68
e 43 69
e 43 75
e 43 76
e 43 77
e 43 81
e 43 82
e 43 83
e 43 85
e 43 90
e 43 94
e 43 97
e 43 98
e 43 100
e 43 101
e 43 102
e 43 106
e 44 63
e 44 69
e 44 74
e 44 78
e 44 80
e 44 83
e 44 86
e 44 87
e 44 88
e 44 93
e 44 94
e 44 96
e 44 101
e 44 103
e 44 104
e 45 64
e 45 67
e 45 72
e 45 73
e 45 75
e 45 76
e 45 77
e 45 80
e 45 82
e 45 87
e 45 91
e 45 98
e 45 99
e 45 101
e 45 104
e 46 63
e 46 65
e 46 67
e 46 69
e 46 70
e 46 71
e 46 72
e 46 76
e 46 81
e 46 83
e 46 84
e 46 92
e 46 96
e 46 101
e 46 103
e 46 105
e 46 108
e 47 63
e 47 71
e 47 74
e 47 75
e 47 76
e 47 80
e 47 85
e 47 88
e 47 89
e 47 90
e 47 91
e 47 95
e 47 98
e 47 104
e 47 105
e 48 63
e 48 67
e 48 71
e 48 72
e 48 75
e 48 78
e 48 80
e 48 82
e 48 85
e 48 86
e 48 95
e 48 97
e 48 99
e 48 105
e 48 106
e 49 66
e 49 69
e 49 73
e 49 74
e 49 77
e 49 81
e 49 84
e 49 88
e 49 91
e 49 99
e 49 105
e 49 107
e 50 71
e 50 73
e 50 80
e 50 92
e 50 94
e 50 96
e 50 98
e 50 107
e 50 108
e 51 65
e 51 66
e 51 69
e 51 74
e 51 77
e 51 86
e 51 88
e 51 89
e 51 94
e 51 95
e 51 96
e 51 100
e 51 101
e 51 102
e 51 103
e 51 108
e 52 67
e 52 76
e 52 79
e 52 80
e 52 84
e 52 86
e 52 94
e 52 97
e 52 100
e 52 103
e 52 104
e 52 106
e 53 63
e 53 64
e 53 66
e 53 68
e 53 70
e 53 72
e 53 79
e 53 82
e 53 89
e 53 91
e 53 92
e 53 95
e 53 96
e 53 100
e 54 63
e 54 65
e 54 67
e 54 68
e 54 69
e 54 70
e 54 75
e 54 77
e 54 81
e 54 83
e 54 90
e 54 104
e 54 106
e 54 108
e 55 66
e 55 68
e 55 70
e 55 73
e 55 74
e 55 78
e 55 79
e 55 81
e 55 82
e 55 85
e 55 86
e 55 87
e 55 92
e 55 94
e 55 96
e 55 97
e 55 104
e 55 107
e 56 69
e 56 71
e 56 72
e 56 79
e 56 85
e 56 91
e 56 94
e 56 99
e 56 102
e 56 106
e 56 107
e 57 64
e 57 66
e 57 68
e 57 76
e 57 84
e 57 87
e 57 89
e 57 90
e 57 95
e 57 97
e 57 100
e 57 103
e 58 63
e 58 64
e 58 70
e 58 76
e 58 89
e 58 91
e 58 92
e 58 93
e 58 98
e 58 99
e 58 102
e 58 104
e 58 106
e 59 64
e 59 65
e 59 66
e 59 70
e 59 71
e 59 74
e 59 78
e 59 81
e 59 82
e 59 83
e 59 84
e 59 87
e 59 88
e 59 90
e 59 95
e 59 100
e 59 102
e 59 103
e 59 108
e 60 65
e 60 69
e 60 70
e 60 73
e 60 76
e 60 81
e 60 85
e 60 87
e 60 89
e 60 99
e 60 101
e 60 103
e 60 106
e 60 108
e 61 76
e 61 78
e 61 79
e 61 80
e 61 83
e 61 88
e 61 90
e 61 93
e 61 95
e 61 97
e 61 98
e 61 101
e 61 105
e 61 107
e 62 64
e 62 65
e 62 71
e 62 74
e 62 83
e 62 84
e 62 85
e 62 89
e 62 92
e 62 93
e 62 95
e 62 97
e 62 98
e 62 99
e 62 102
e 62 103
e 62 104
e 62 105
